128
0 89 85 45 71 92 87 78 115 10 
94 37 13 49 68 36 98 60 72 64 
54 48 93 107 24 63 102 116 127 38 
22 84 21 8 82 27 11 28 80 47 
75 17 110 86 29 52 31 46 19 83 
50 62 2 65 16 74 9 118 112 96 
33 73 126 106 34 26 100 44 70 67 
97 23 113 43 15 1 101 105 58 5 
4 79 18 77 120 53 88 7 123 61 
108 124 39 122 41 76 117 66 91 3 
32 121 90 57 59 95 40 111 6 25 
104 119 81 103 99 114 42 20 14 109 
51 30 35 12 55 56 69 125 
